c nombre: 16
c densidad: 0.1
p edges 60 184
e 1 4
e 1 22
e 1 25
e 1 34
e 1 36
e 1 47
e 1 54
e 1 55
e 2 13
e 2 22
e 2 31
e 2 51
e 2 60
e 3 9
e 3 10
e 3 31
e 3 32
e 3 48
e 3 49
e 3 56
e 4 9
e 4 16
e 4 19
e 4 20
e 4 30
e 4 34
e 5 7
e 5 38
e 6 7
e 6 18
e 6 29
e 6 33
e 6 39
e 6 46
e 6 49
e 6 53
e 7 18
e 7 26
e 7 30
e 7 41
e 7 53
e 7 59
e 8 11
e 8 46
e 8 51
e 9 13
e 9 15
e 9 17
e 9 21
e 9 40
e 9 44
e 9 53
e 9 54
e 9 60
e 10 14
e 10 21
e 10 31
e 10 52
e 10 53
e 11 14
e 11 16
e 11 24
e 11 26
e 12 20
e 12 34
e 13 34
e 13 42
e 13 50
e 13 51
e 13 58
e 14 18
e 14 26
e 14 30
e 14 38
e 14 42
e 14 46
e 14 59
e 14 60
e 15 21
e 15 54
e 15 55
e 15 59
e 16 31
e 16 33
e 16 46
e 16 49
e 17 28
e 17 30
e 17 31
e 17 36
e 17 52
e 17 60
e 18 42
e 18 54
e 18 56
e 18 59
e 18 60
e 19 25
e 19 32
e 19 40
e 19 46
e 19 47
e 19 49
e 19 50
e 19 57
e 19 58
e 19 59
e 20 25
e 20 44
e 20 57
e 21 22
e 21 24
e 21 29
e 21 44
e 21 50
e 22 59
e 23 27
e 23 34
e 23 60
e 24 31
e 24 48
e 24 55
e 25 35
e 25 47
e 26 36
e 26 50
e 27 28
e 27 29
e 27 39
e 27 49
e 27 50
e 27 57
e 27 60
e 28 40
e 28 53
e 28 56
e 29 36
e 29 45
e 29 55
e 31 32
e 31 42
e 31 52
e 32 38
e 32 47
e 32 48
e 33 38
e 33 42
e 33 51
e 34 41
e 34 44
e 34 48
e 34 52
e 35 37
e 35 46
e 35 53
e 35 58
e 35 60
e 36 47
e 36 54
e 36 57
e 37 45
e 37 51
e 37 56
e 38 53
e 39 54
e 40 49
e 40 53
e 41 49
e 41 58
e 41 60
e 42 43
e 42 50
e 42 51
e 43 56
e 45 49
e 45 59
e 46 48
e 46 51
e 47 48
e 47 49
e 47 51
e 47 56
e 51 53
e 52 55
